12
0 38 13 73 10 76 6 80 65 17 2 77 
38 0 72 7 26 51 21 19 85 12 29 30 
13 72 0 15 51 69 88 88 95 97 87 14 
73 7 15 0 10 8 64 62 23 58 2 1 
10 26 51 10 0 61 82 9 89 14 48 73 
76 51 69 8 61 0 31 72 4 71 22 50 
6 21 88 64 82 31 0 58 4 69 25 44 
80 19 88 62 9 72 58 0 77 27 53 81 
65 85 95 23 89 4 4 77 0 42 83 16 
17 12 97 58 14 71 69 27 42 0 65 69 
2 29 87 2 48 22 25 53 83 65 0 26 
77 30 14 1 73 50 44 81 16 69 26 0 
